NAME: ftv10
TYPE: ATSP
COMMENT: Asymmetric TSP (Fischetti) for DIMENSION 10
DIMENSION: 10
EDGE_WEIGHT_TYPE: EXPLICIT
EDGE_WEIGHT_FORMAT: FULL_MATRIX 
EDGE_WEIGHT_SECTION
   100000000         39         156         141         135         183         108         190         104         76
          41   100000000        144         102          96         144          69         152          65         37
          85         130   100000000         94         114         162          47         120          65         56
          95         140         154   100000000        105         148          69         125          80         90
          70         135         110         120   100000000        130          50         160          90         78
          60         126         155         112          98   100000000         55         148          82         67
          82         129         116         107          96         110   100000000        140          95         72
          91         134         151         100         109         122          58   100000000         88         83
          67         120         108          98         110         132          59         138   100000000        75
          79         133         146          91          85         140          65         129          80  100000000
EOF
